
Gurobi 11.0.1 (linux64, gurobi_cl) logging started Tue Apr 16 11:22:42 2024

Set parameter LogFile to value "gurobi.log"
Using license file /home/dduchen/miniforge3/envs/bigfoot/bin/../lib/gurobi.lic
Restricted license - for non-production use only - expires 2025-11-24
